/*********************************************
 * OPL 12.2 Data
 * Author: mireia.roca
 * Creation Date: 04/02/16
*********************************************/
Id=8062;
c=2;
n=20;
N={1,2,3,4,5,6,7,8,9,10,11,12,13,14,15,16,17,18,19,20};
D={21,22};
Q=200;
CJ=[{2},{2},{1},{1,2},{1,2},{1},{1,2},{2},{1},{2},{2},{1,2},{1,2},{1,2},{2},{2},{2},{2},{1},{1}];
d=[
[0,9],[0,8],[11,0],[8,16],[13,9],[19,0],[5,19],[0,13],[7,0],[0,10],[0,11],[13,13],[6,18],[10,17],[0,14],[0,16],[0,15],[0,13],[15,0],[7,0]];
m=[3,3];
K=[{1,2,3},{4,5,6}];
KT={1,2,3,4,5,6};
cv=50;
cost = #[
<1,2>:10.44,
<1,3>:22.02,
<1,4>:32.14,
<1,5>:12.53,
<1,6>:24.08,
<1,7>:27.86,
<1,8>:8.49,
<1,9>:8.54,
<1,10>:23.54,
<1,11>:35.13,
<1,12>:7.21,
<1,13>:15.81,
<1,14>:18.38,
<1,15>:38.47,
<1,16>:5.39,
<1,17>:10.05,
<1,18>:19.42,
<1,19>:26.93,
<1,20>:7.28,
<1,21>:70.18,
<1,22>:71.59,
<2,1>:10.44,
<2,3>:26.57,
<2,4>:22.80,
<2,5>:3.16,
<2,6>:29.55,
<2,7>:20.62,
<2,8>:16.28,
<2,9>:8.60,
<2,10>:26.48,
<2,11>:25.00,
<2,12>:8.06,
<2,13>:5.39,
<2,14>:20.22,
<2,15>:29.41,
<2,16>:7.07,
<2,17>:2.00,
<2,18>:26.08,
<2,19>:18.87,
<2,20>:12.65,
<2,21>:60.81,
<2,22>:80.61,
<3,1>:22.02,
<3,2>:26.57,
<3,4>:36.36,
<3,5>:29.73,
<3,6>:3.61,
<3,7>:27.73,
<3,8>:28.86,
<3,9>:30.07,
<3,10>:4.12,
<3,11>:42.20,
<3,12>:18.68,
<3,13>:30.41,
<3,14>:7.81,
<3,15>:40.31,
<3,16>:20.40,
<3,17>:24.70,
<3,18>:5.83,
<3,19>:29.15,
<3,20>:29.15,
<3,21>:85.60,
<3,22>:57.69,
<4,1>:32.14,
<4,2>:22.80,
<4,3>:36.36,
<4,5>:22.85,
<4,6>:39.96,
<4,7>:9.22,
<4,8>:39.05,
<4,9>:31.02,
<4,10>:33.60,
<4,11>:6.71,
<4,12>:26.02,
<4,13>:18.79,
<4,14>:28.65,
<4,15>:6.71,
<4,16>:27.02,
<4,17>:22.36,
<4,18>:39.40,
<4,19>:7.21,
<4,20>:35.44,
<4,21>:53.31,
<4,22>:94.03,
<5,1>:12.53,
<5,2>:3.16,
<5,3>:29.73,
<5,4>:22.85,
<5,6>:32.70,
<5,7>:21.93,
<5,8>:17.00,
<5,9>:8.25,
<5,10>:29.61,
<5,11>:24.19,
<5,12>:11.18,
<5,13>:4.12,
<5,14>:23.35,
<5,15>:29.55,
<5,16>:10.00,
<5,17>:5.10,
<5,18>:29.15,
<5,19>:19.85,
<5,20>:13.04,
<5,21>:58.00,
<5,22>:83.45,
<6,1>:24.08,
<6,2>:29.55,
<6,3>:3.61,
<6,4>:39.96,
<6,5>:32.70,
<6,7>:31.30,
<6,8>:30.27,
<6,9>:32.39,
<6,10>:7.07,
<6,11>:45.80,
<6,12>:21.54,
<6,13>:33.62,
<6,14>:11.40,
<6,15>:43.86,
<6,16>:23.09,
<6,17>:27.73,
<6,18>:5.39,
<6,19>:32.76,
<6,20>:31.00,
<6,21>:89.02,
<6,22>:54.08,
<7,1>:27.86,
<7,2>:20.62,
<7,3>:27.73,
<7,4>:9.22,
<7,5>:21.93,
<7,6>:31.30,
<7,8>:35.78,
<7,9>:29.21,
<7,10>:24.70,
<7,11>:15.81,
<7,12>:20.88,
<7,13>:18.60,
<7,14>:20.25,
<7,15>:12.65,
<7,16>:22.47,
<7,17>:19.42,
<7,18>:31.32,
<7,19>:3.00,
<7,20>:32.76,
<7,21>:62.17,
<7,22>:85.23,
<8,1>:8.49,
<8,2>:16.28,
<8,3>:28.86,
<8,4>:39.05,
<8,5>:17.00,
<8,6>:30.27,
<8,7>:35.78,
<8,9>:9.22,
<8,10>:31.02,
<8,11>:41.11,
<8,12>:15.62,
<8,13>:21.02,
<8,14>:26.42,
<8,15>:45.61,
<8,16>:13.60,
<8,17>:16.76,
<8,18>:25.08,
<8,19>:34.54,
<8,20>:4.12,
<8,21>:71.28,
<8,22>:72.67,
<9,1>:8.54,
<9,2>:8.60,
<9,3>:30.07,
<9,4>:31.02,
<9,5>:8.25,
<9,6>:32.39,
<9,7>:29.21,
<9,8>:9.22,
<9,10>:31.06,
<9,11>:32.39,
<9,12>:12.37,
<9,13>:12.37,
<9,14>:25.32,
<9,15>:37.70,
<9,16>:10.20,
<9,17>:9.90,
<9,18>:27.89,
<9,19>:27.46,
<9,20>:5.10,
<9,21>:62.80,
<9,22>:79.65,
<10,1>:23.54,
<10,2>:26.48,
<10,3>:4.12,
<10,4>:33.60,
<10,5>:29.61,
<10,6>:7.07,
<10,7>:24.70,
<10,8>:31.02,
<10,9>:31.06,
<10,11>:39.70,
<10,12>:19.03,
<10,13>:29.73,
<10,14>:6.32,
<10,15>:37.12,
<10,16>:21.00,
<10,17>:24.52,
<10,18>:9.85,
<10,19>:26.40,
<10,20>:30.81,
<10,21>:84.05,
<10,22>:60.54,
<11,1>:35.13,
<11,2>:25.00,
<11,3>:42.20,
<11,4>:6.71,
<11,5>:24.19,
<11,6>:45.80,
<11,7>:15.81,
<11,8>:41.11,
<11,9>:32.39,
<11,10>:39.70,
<11,12>:29.83,
<11,13>:20.10,
<11,14>:34.41,
<11,15>:9.49,
<11,16>:30.41,
<11,17>:25.08,
<11,18>:44.78,
<11,19>:13.45,
<11,20>:37.22,
<11,21>:46.62,
<11,22>:99.86,
<12,1>:7.21,
<12,2>:8.06,
<12,3>:18.68,
<12,4>:26.02,
<12,5>:11.18,
<12,6>:21.54,
<12,7>:20.88,
<12,8>:15.62,
<12,9>:12.37,
<12,10>:19.03,
<12,11>:29.83,
<12,13>:12.73,
<12,14>:13.04,
<12,15>:32.06,
<12,16>:2.24,
<12,17>:6.40,
<12,18>:18.03,
<12,19>:20.22,
<12,20>:13.60,
<12,21>:68.62,
<12,22>:72.86,
<13,1>:15.81,
<13,2>:5.39,
<13,3>:30.41,
<13,4>:18.79,
<13,5>:4.12,
<13,6>:33.62,
<13,7>:18.60,
<13,8>:21.02,
<13,9>:12.37,
<13,10>:29.73,
<13,11>:20.10,
<13,12>:12.73,
<13,14>:23.41,
<13,15>:25.50,
<13,16>:12.21,
<13,17>:6.40,
<13,18>:30.61,
<13,19>:16.28,
<13,20>:17.12,
<13,21>:55.90,
<13,22>:85.59,
<14,1>:18.38,
<14,2>:20.22,
<14,3>:7.81,
<14,4>:28.65,
<14,5>:23.35,
<14,6>:11.40,
<14,7>:20.25,
<14,8>:26.42,
<14,9>:25.32,
<14,10>:6.32,
<14,11>:34.41,
<14,12>:13.04,
<14,13>:23.41,
<14,15>:32.89,
<14,16>:15.13,
<14,17>:18.25,
<14,18>:11.18,
<14,19>:21.47,
<14,20>:25.63,
<14,21>:78.01,
<14,22>:65.46,
<15,1>:38.47,
<15,2>:29.41,
<15,3>:40.31,
<15,4>:6.71,
<15,5>:29.55,
<15,6>:43.86,
<15,7>:12.65,
<15,8>:45.61,
<15,9>:37.70,
<15,10>:37.12,
<15,11>:9.49,
<15,12>:32.06,
<15,13>:25.50,
<15,14>:32.89,
<15,16>:33.24,
<15,17>:28.86,
<15,18>:43.97,
<15,19>:12.04,
<15,20>:42.06,
<15,21>:54.12,
<15,22>:97.62,
<16,1>:5.39,
<16,2>:7.07,
<16,3>:20.40,
<16,4>:27.02,
<16,5>:10.00,
<16,6>:23.09,
<16,7>:22.47,
<16,8>:13.60,
<16,9>:10.20,
<16,10>:21.00,
<16,11>:30.41,
<16,12>:2.24,
<16,13>:12.21,
<16,14>:15.13,
<16,15>:33.24,
<16,17>:5.83,
<16,18>:19.24,
<16,19>:21.59,
<16,20>:11.40,
<16,21>:67.88,
<16,22>:73.54,
<17,1>:10.05,
<17,2>:2.00,
<17,3>:24.70,
<17,4>:22.36,
<17,5>:5.10,
<17,6>:27.73,
<17,7>:19.42,
<17,8>:16.76,
<17,9>:9.90,
<17,10>:24.52,
<17,11>:25.08,
<17,12>:6.40,
<17,13>:6.40,
<17,14>:18.25,
<17,15>:28.86,
<17,16>:5.83,
<17,18>:24.41,
<17,19>:17.89,
<17,20>:13.42,
<17,21>:62.24,
<17,22>:79.21,
<18,1>:19.42,
<18,2>:26.08,
<18,3>:5.83,
<18,4>:39.40,
<18,5>:29.15,
<18,6>:5.39,
<18,7>:31.32,
<18,8>:25.08,
<18,9>:27.89,
<18,10>:9.85,
<18,11>:44.78,
<18,12>:18.03,
<18,13>:30.61,
<18,14>:11.18,
<18,15>:43.97,
<18,16>:19.24,
<18,17>:24.41,
<18,19>:32.31,
<18,20>:26.08,
<18,21>:86.45,
<18,22>:55.44,
<19,1>:26.93,
<19,2>:18.87,
<19,3>:29.15,
<19,4>:7.21,
<19,5>:19.85,
<19,6>:32.76,
<19,7>:3.00,
<19,8>:34.54,
<19,9>:27.46,
<19,10>:26.40,
<19,11>:13.45,
<19,12>:20.22,
<19,13>:16.28,
<19,14>:21.47,
<19,15>:12.04,
<19,16>:21.59,
<19,17>:17.89,
<19,18>:32.31,
<19,20>:31.30,
<19,21>:59.48,
<19,22>:86.82,
<20,1>:7.28,
<20,2>:12.65,
<20,3>:29.15,
<20,4>:35.44,
<20,5>:13.04,
<20,6>:31.00,
<20,7>:32.76,
<20,8>:4.12,
<20,9>:5.10,
<20,10>:30.81,
<20,11>:37.22,
<20,12>:13.60,
<20,13>:17.12,
<20,14>:25.63,
<20,15>:42.06,
<20,16>:11.40,
<20,17>:13.42,
<20,18>:26.08,
<20,19>:31.30,
<20,21>:67.42,
<20,22>:75.80,
<21,1>:70.18,
<21,2>:60.81,
<21,3>:85.60,
<21,4>:53.31,
<21,5>:58.00,
<21,6>:89.02,
<21,7>:62.17,
<21,8>:71.28,
<21,9>:62.80,
<21,10>:84.05,
<21,11>:46.62,
<21,12>:68.62,
<21,13>:55.90,
<21,14>:78.01,
<21,15>:54.12,
<21,16>:67.88,
<21,17>:62.24,
<21,18>:86.45,
<21,19>:59.48,
<21,20>:67.42,
<22,1>:71.59,
<22,2>:80.61,
<22,3>:57.69,
<22,4>:94.03,
<22,5>:83.45,
<22,6>:54.08,
<22,7>:85.23,
<22,8>:72.67,
<22,9>:79.65,
<22,10>:60.54,
<22,11>:99.86,
<22,12>:72.86,
<22,13>:85.59,
<22,14>:65.46,
<22,15>:97.62,
<22,16>:73.54,
<22,17>:79.21,
<22,18>:55.44,
<22,19>:86.82,
<22,20>:75.80,
]#;


/*********************************************
 * Author: Zimmermann, Julia. Carvalheira, Rafael.
 * Creation Date: 30/01/25
*********************************************/

SCCVRPSPD

p = [
0 24
0 18
13 0
5 12
11 13
13 0
6 8
0 12
8 0
0 11
0 12
16 12
13 15
7 9
0 14
0 14
0 16
0 11
16 0
6 0
]

SCCVRPSPDM-M

m2m[1, 12, 2] = 3
m2m[1, 21, 2] = 6
m2m[2, 21, 2] = 8
m2m[3, 4, 1] = 11
m2m[4, 21, 2] = 16
m2m[5, 21, 1] = 13
m2m[6, 21, 1] = 19
m2m[7, 21, 1] = 5
m2m[8, 5, 2] = 8
m2m[8, 21, 2] = 5
m2m[9, 21, 1] = 7
m2m[10, 21, 2] = 10
m2m[11, 7, 2] = 11
m2m[12, 21, 1] = 13
m2m[13, 21, 2] = 18
m2m[14, 21, 1] = 10
m2m[15, 14, 2] = 11
m2m[15, 21, 2] = 3
m2m[16, 21, 2] = 16
m2m[17, 21, 2] = 15
m2m[18, 21, 2] = 13
m2m[19, 13, 1] = 9
m2m[19, 21, 1] = 6
m2m[20, 21, 1] = 7
m2m[21, 2, 2] = 18
m2m[21, 4, 2] = 12
m2m[21, 5, 1] = 11
m2m[21, 6, 1] = 13
m2m[21, 7, 1] = 6
m2m[21, 9, 1] = 8
m2m[21, 10, 2] = 11
m2m[21, 12, 1] = 16
m2m[21, 13, 2] = 15
m2m[21, 14, 1] = 7
m2m[21, 16, 2] = 14
m2m[21, 17, 2] = 16
m2m[21, 18, 2] = 11
m2m[21, 20, 1] = 6
